interdiction/MCDM/NO_CORR/GEN_FROM_60/18_ITEMS_1000_GEN/K5018W07.KNP.mps
NAME          BLANK   
ROWS
 N  OBJROW
 L  R0000000
COLUMNS
    C0000000  OBJROW     -398.         R0000000  217.        
    C0000001  OBJROW     -999.         R0000000  17.         
    C0000002  OBJROW     -938.         R0000000  888.        
    C0000003  OBJROW     -20.          R0000000  458.        
    C0000004  OBJROW     -838.         R0000000  912.        
    C0000005  OBJROW     -949.         R0000000  314.        
    C0000006  OBJROW     -532.         R0000000  672.        
    C0000007  OBJROW     -503.         R0000000  74.         
    C0000008  OBJROW     -361.         R0000000  226.        
    C0000009  OBJROW     -648.         R0000000  652.        
    C0000010  OBJROW     -244.         R0000000  716.        
    C0000011  OBJROW     -674.         R0000000  671.        
    C0000012  OBJROW     -304.         R0000000  271.        
    C0000013  OBJROW     -320.         R0000000  424.        
    C0000014  OBJROW     -944.         R0000000  496.        
    C0000015  OBJROW     -218.         R0000000  635.        
    C0000016  OBJROW     -73.          R0000000  341.        
    C0000017  OBJROW     -474.         R0000000  838.        
RHS
    RHS       R0000000  16386.      
BOUNDS
 BV BOUND     C0000000  1.          
 BV BOUND     C0000001  1.          
 BV BOUND     C0000002  1.          
 BV BOUND     C0000003  1.          
 BV BOUND     C0000004  1.          
 BV BOUND     C0000005  1.          
 BV BOUND     C0000006  1.          
 BV BOUND     C0000007  1.          
 BV BOUND     C0000008  1.          
 BV BOUND     C0000009  1.          
 BV BOUND     C0000010  1.          
 BV BOUND     C0000011  1.          
 BV BOUND     C0000012  1.          
 BV BOUND     C0000013  1.          
 BV BOUND     C0000014  1.          
 BV BOUND     C0000015  1.          
 BV BOUND     C0000016  1.          
 BV BOUND     C0000017  1.          
ENDATA
