data/MCDM/NO_CORR/GEN_FROM_60/18_ITEMS_1000_GEN/K5018W07.KNP.txt
N 18
M 19
LC 18
LC 19
LC 20
LC 21
LC 22
LC 23
LC 24
LC 25
LC 26
LC 27
LC 28
LC 29
LC 30
LC 31
LC 32
LC 33
LC 34
LC 35
LR 1
LR 2
LR 3
LR 4
LR 5
LR 6
LR 7
LR 8
LR 9
LR 10
LR 11
LR 12
LR 13
LR 14
LR 15
LR 16
LR 17
LR 18
LR 19
LO -398
LO -999
LO -938
LO -20
LO -838
LO -949
LO -532
LO -503
LO -361
LO -648
LO -244
LO -674
LO -304
LO -320
LO -944
LO -218
LO -73
LO -474
OS 1
IC 195
IC 665
IC 664
IC 836
IC 38
IC 69
IC 718
IC 789
IC 443
IC 573
IC 849
IC 427
IC 195
IC 405
IC 797
IC 814
IC 707
IC 696
IB 4940
